NAME : XML500_1111_01
COMMENT : Combined from five XML100 benchmark files
TYPE : CVRP
DIMENSION : 501
EDGE_WEIGHT_TYPE : EUC_2D
CAPACITY : 20
NODE_COORD_SECTION
1 764 255
2 303 588
3 445 722
4 993 860
5 34 242
6 900 18
7 290 21
8 395 576
9 505 589
10 838 557
11 756 249
12 29 221
13 613 458
14 43 704
15 673 83
16 798 517
17 218 460
18 233 231
19 28 229
20 306 859
21 514 953
22 490 29
23 310 940
24 173 549
25 393 170
26 378 347
27 861 232
28 228 946
29 868 974
30 433 194
31 121 333
32 510 209
33 722 711
34 940 381
35 703 675
36 421 188
37 704 509
38 797 817
39 269 548
40 223 649
41 344 69
42 23 386
43 220 976
44 744 416
45 958 5
46 205 674
47 809 519
48 521 393
49 763 2
50 968 876
51 836 433
52 570 200
53 830 670
54 16 14
55 20 17
56 502 983
57 678 545
58 375 439
59 561 426
60 58 298
61 104 666
62 25 541
63 505 485
64 902 30
65 570 171
66 109 625
67 578 459
68 606 817
69 296 500
70 168 273
71 325 872
72 652 789
73 984 593
74 771 540
75 879 37
76 322 474
77 321 631
78 495 449
79 883 847
80 357 346
81 160 705
82 93 28
83 177 585
84 508 779
85 146 719
86 56 870
87 159 527
88 539 624
89 108 900
90 712 455
91 937 422
92 887 741
93 820 963
94 216 422
95 861 799
96 438 496
97 252 8
98 784 821
99 798 414
100 255 842
101 642 186
102 465 318
103 521 464
104 606 607
105 431 393
106 222 324
107 113 337
108 434 512
109 875 127
110 661 316
111 581 51
112 724 487
113 461 530
114 510 999
115 763 790
116 310 642
117 106 522
118 652 588
119 82 955
120 615 743
121 445 268
122 964 729
123 4 35
124 854 245
125 581 158
126 526 561
127 519 922
128 611 289
129 508 984
130 30 449
131 18 558
132 99 181
133 568 921
134 653 273
135 21 255
136 36 344
137 251 591
138 380 892
139 212 907
140 984 372
141 836 736
142 958 706
143 183 692
144 623 75
145 418 525
146 226 876
147 766 740
148 950 544
149 325 136
150 423 526
151 354 883
152 95 635
153 102 448
154 700 166
155 624 801
156 232 445
157 473 225
158 385 43
159 814 157
160 723 995
161 735 907
162 935 995
163 710 256
164 902 756
165 210 881
166 236 23
167 803 366
168 504 518
169 585 393
170 962 161
171 745 58
172 181 93
173 960 259
174 501 832
175 724 241
176 990 151
177 25 730
178 912 309
179 863 706
180 33 161
181 31 362
182 515 143
183 172 673
184 354 981
185 908 268
186 754 715
187 900 461
188 675 182
189 670 308
190 894 797
191 231 217
192 908 191
193 606 420
194 423 717
195 821 726
196 312 208
197 140 56
198 409 111
199 490 925
200 35 27
201 512 935
202 42 868
203 351 585
204 337 650
205 294 769
206 676 964
207 505 999
208 881 981
209 635 868
210 644 596
211 183 278
212 129 292
213 4 944
214 415 580
215 996 470
216 671 163
217 873 44
218 861 965
219 259 234
220 837 476
221 310 222
222 289 341
223 364 312
224 611 156
225 773 26
226 136 217
227 746 837
228 346 417
229 885 451
230 966 436
231 880 987
232 559 620
233 707 738
234 314 959
235 928 222
236 589 287
237 905 569
238 431 721
239 237 301
240 395 801
241 322 334
242 600 31
243 225 121
244 569 735
245 410 150
246 698 101
247 978 521
248 309 77
249 854 990
250 857 991
251 615 44
252 285 63
253 187 435
254 13 838
255 639 150
256 866 473
257 627 301
258 251 456
259 369 596
260 834 438
261 460 520
262 856 169
263 627 466
264 714 211
265 804 238
266 879 97
267 584 905
268 682 929
269 714 922
270 434 951
271 679 352
272 807 839
273 507 386
274 523 741
275 300 377
276 197 408
277 301 31
278 227 68
279 719 879
280 794 271
281 672 64
282 897 378
283 941 507
284 719 331
285 626 65
286 811 45
287 632 60
288 663 519
289 88 801
290 22 60
291 921 156
292 808 642
293 445 936
294 593 320
295 758 591
296 807 345
297 420 409
298 20 616
299 832 574
300 530 190
301 548 11
302 595 489
303 508 414
304 413 202
305 331 9
306 55 168
307 865 608
308 44 169
309 892 774
310 66 401
311 972 962
312 635 569
313 768 523
314 810 783
315 621 818
316 506 177
317 800 643
318 813 43
319 382 962
320 606 672
321 248 890
322 923 13
323 548 300
324 655 686
325 237 331
326 900 925
327 471 343
328 677 149
329 61 229
330 18 289
331 36 421
332 40 491
333 471 526
334 599 431
335 918 801
336 815 528
337 474 89
338 969 667
339 732 855
340 356 747
341 280 535
342 735 960
343 214 928
344 320 559
345 791 745
346 998 195
347 982 424
348 211 874
349 336 657
350 784 363
351 231 870
352 218 3
353 42 697
354 26 34
355 672 330
356 877 116
357 46 626
358 268 923
359 177 459
360 747 928
361 879 201
362 966 776
363 444 136
364 991 403
365 161 305
366 310 627
367 899 127
368 633 276
369 905 101
370 765 616
371 765 222
372 878 551
373 669 44
374 901 654
375 909 572
376 172 106
377 829 807
378 883 848
379 831 499
380 242 411
381 290 97
382 208 59
383 293 191
384 122 529
385 60 167
386 801 193
387 935 866
388 988 478
389 249 998
390 774 409
391 31 254
392 138 362
393 957 74
394 880 86
395 896 955
396 928 565
397 242 208
398 537 276
399 141 51
400 410 944
401 494 93
402 289 962
403 770 691
404 691 967
405 366 579
406 930 942
407 108 749
408 750 845
409 631 41
410 731 171
411 32 494
412 977 957
413 166 837
414 499 338
415 648 798
416 363 705
417 839 130
418 692 720
419 406 237
420 797 138
421 539 678
422 106 434
423 766 159
424 361 786
425 317 177
426 738 829
427 13 216
428 1000 853
429 11 547
430 983 873
431 1 872
432 740 923
433 525 776
434 456 422
435 870 689
436 361 166
437 894 299
438 27 160
439 250 672
440 594 827
441 344 355
442 637 721
443 901 113
444 161 48
445 55 916
446 798 860
447 664 760
448 782 868
449 624 775
450 91 341
451 976 22
452 145 65
453 544 574
454 518 529
455 987 534
456 611 919
457 732 950
458 469 246
459 279 917
460 78 149
461 819 481
462 18 788
463 689 997
464 348 644
465 705 57
466 219 686
467 301 603
468 340 925
469 666 421
470 29 466
471 938 477
472 149 845
473 976 453
474 350 843
475 441 650
476 545 312
477 294 946
478 204 941
479 181 956
480 281 486
481 316 481
482 3 678
483 775 695
484 650 581
485 618 126
486 944 649
487 781 581
488 631 788
489 295 453
490 209 215
491 404 146
492 196 756
493 89 272
494 36 946
495 960 627
496 338 310
497 377 989
498 9 46
499 479 291
500 488 730
501 463 817
DEMAND_SECTION
1 0
2 1
3 1
4 1
5 1
6 1
7 1
8 1
9 1
10 1
11 1
12 1
13 1
14 1
15 1
16 1
17 1
18 1
19 1
20 1
21 1
22 1
23 1
24 1
25 1
26 1
27 1
28 1
29 1
30 1
31 1
32 1
33 1
34 1
35 1
36 1
37 1
38 1
39 1
40 1
41 1
42 1
43 1
44 1
45 1
46 1
47 1
48 1
49 1
50 1
51 1
52 1
53 1
54 1
55 1
56 1
57 1
58 1
59 1
60 1
61 1
62 1
63 1
64 1
65 1
66 1
67 1
68 1
69 1
70 1
71 1
72 1
73 1
74 1
75 1
76 1
77 1
78 1
79 1
80 1
81 1
82 1
83 1
84 1
85 1
86 1
87 1
88 1
89 1
90 1
91 1
92 1
93 1
94 1
95 1
96 1
97 1
98 1
99 1
100 1
101 1
102 1
103 1
104 1
105 1
106 1
107 1
108 1
109 1
110 1
111 1
112 1
113 1
114 1
115 1
116 1
117 1
118 1
119 1
120 1
121 1
122 1
123 1
124 1
125 1
126 1
127 1
128 1
129 1
130 1
131 1
132 1
133 1
134 1
135 1
136 1
137 1
138 1
139 1
140 1
141 1
142 1
143 1
144 1
145 1
146 1
147 1
148 1
149 1
150 1
151 1
152 1
153 1
154 1
155 1
156 1
157 1
158 1
159 1
160 1
161 1
162 1
163 1
164 1
165 1
166 1
167 1
168 1
169 1
170 1
171 1
172 1
173 1
174 1
175 1
176 1
177 1
178 1
179 1
180 1
181 1
182 1
183 1
184 1
185 1
186 1
187 1
188 1
189 1
190 1
191 1
192 1
193 1
194 1
195 1
196 1
197 1
198 1
199 1
200 1
201 1
202 1
203 1
204 1
205 1
206 1
207 1
208 1
209 1
210 1
211 1
212 1
213 1
214 1
215 1
216 1
217 1
218 1
219 1
220 1
221 1
222 1
223 1
224 1
225 1
226 1
227 1
228 1
229 1
230 1
231 1
232 1
233 1
234 1
235 1
236 1
237 1
238 1
239 1
240 1
241 1
242 1
243 1
244 1
245 1
246 1
247 1
248 1
249 1
250 1
251 1
252 1
253 1
254 1
255 1
256 1
257 1
258 1
259 1
260 1
261 1
262 1
263 1
264 1
265 1
266 1
267 1
268 1
269 1
270 1
271 1
272 1
273 1
274 1
275 1
276 1
277 1
278 1
279 1
280 1
281 1
282 1
283 1
284 1
285 1
286 1
287 1
288 1
289 1
290 1
291 1
292 1
293 1
294 1
295 1
296 1
297 1
298 1
299 1
300 1
301 1
302 1
303 1
304 1
305 1
306 1
307 1
308 1
309 1
310 1
311 1
312 1
313 1
314 1
315 1
316 1
317 1
318 1
319 1
320 1
321 1
322 1
323 1
324 1
325 1
326 1
327 1
328 1
329 1
330 1
331 1
332 1
333 1
334 1
335 1
336 1
337 1
338 1
339 1
340 1
341 1
342 1
343 1
344 1
345 1
346 1
347 1
348 1
349 1
350 1
351 1
352 1
353 1
354 1
355 1
356 1
357 1
358 1
359 1
360 1
361 1
362 1
363 1
364 1
365 1
366 1
367 1
368 1
369 1
370 1
371 1
372 1
373 1
374 1
375 1
376 1
377 1
378 1
379 1
380 1
381 1
382 1
383 1
384 1
385 1
386 1
387 1
388 1
389 1
390 1
391 1
392 1
393 1
394 1
395 1
396 1
397 1
398 1
399 1
400 1
401 1
402 1
403 1
404 1
405 1
406 1
407 1
408 1
409 1
410 1
411 1
412 1
413 1
414 1
415 1
416 1
417 1
418 1
419 1
420 1
421 1
422 1
423 1
424 1
425 1
426 1
427 1
428 1
429 1
430 1
431 1
432 1
433 1
434 1
435 1
436 1
437 1
438 1
439 1
440 1
441 1
442 1
443 1
444 1
445 1
446 1
447 1
448 1
449 1
450 1
451 1
452 1
453 1
454 1
455 1
456 1
457 1
458 1
459 1
460 1
461 1
462 1
463 1
464 1
465 1
466 1
467 1
468 1
469 1
470 1
471 1
472 1
473 1
474 1
475 1
476 1
477 1
478 1
479 1
480 1
481 1
482 1
483 1
484 1
485 1
486 1
487 1
488 1
489 1
490 1
491 1
492 1
493 1
494 1
495 1
496 1
497 1
498 1
499 1
500 1
501 1
DEPOT_SECTION
1
-1
EOF
